(set-info :smt-lib-version 2.6)
(set-logic QF_UFLRA)
(set-info :source |
MathSat group

|)
(set-info :category "random")
(set-info :status sat)
(declare-fun x0 () Real)
(declare-fun x1 () Real)
(declare-fun x2 () Real)
(declare-fun x3 () Real)
(declare-fun x4 () Real)
(declare-fun x5 () Real)
(declare-fun x6 () Real)
(declare-fun x7 () Real)
(declare-fun x8 () Real)
(declare-fun x9 () Real)
(declare-fun x10 () Real)
(declare-fun x11 () Real)
(declare-fun x12 () Real)
(declare-fun x13 () Real)
(declare-fun x14 () Real)
(declare-fun x15 () Real)
(declare-fun x16 () Real)
(declare-fun x17 () Real)
(declare-fun x18 () Real)
(declare-fun x19 () Real)
(declare-fun x20 () Real)
(declare-fun x21 () Real)
(declare-fun x22 () Real)
(declare-fun x23 () Real)
(declare-fun x24 () Real)
(declare-fun x25 () Real)
(declare-fun x26 () Real)
(declare-fun x27 () Real)
(declare-fun x28 () Real)
(declare-fun x29 () Real)
(declare-fun x30 () Real)
(declare-fun x31 () Real)
(declare-fun x32 () Real)
(declare-fun x33 () Real)
(declare-fun x34 () Real)
(declare-fun x35 () Real)
(declare-fun x36 () Real)
(declare-fun x37 () Real)
(declare-fun x38 () Real)
(declare-fun x39 () Real)
(declare-fun x40 () Real)
(declare-fun x41 () Real)
(declare-fun x42 () Real)
(declare-fun x43 () Real)
(declare-fun x44 () Real)
(declare-fun x45 () Real)
(declare-fun x46 () Real)
(declare-fun x47 () Real)
(declare-fun x48 () Real)
(declare-fun x49 () Real)
(declare-fun f0_1 (Real) Real)
(declare-fun f0_2 (Real Real) Real)
(declare-fun f0_3 (Real Real Real) Real)
(declare-fun f0_4 (Real Real Real Real) Real)
(declare-fun P0 () Bool)
(declare-fun P1 () Bool)
(declare-fun P2 () Bool)
(declare-fun P3 () Bool)
(declare-fun P4 () Bool)
(declare-fun P5 () Bool)
(declare-fun P6 () Bool)
(declare-fun P7 () Bool)
(declare-fun P8 () Bool)
(declare-fun P9 () Bool)
(declare-fun P10 () Bool)
(declare-fun P11 () Bool)
(declare-fun P12 () Bool)
(declare-fun P13 () Bool)
(declare-fun P14 () Bool)
(declare-fun P15 () Bool)
(declare-fun P16 () Bool)
(declare-fun P17 () Bool)
(declare-fun P18 () Bool)
(declare-fun P19 () Bool)
(declare-fun P20 () Bool)
(declare-fun P21 () Bool)
(declare-fun P22 () Bool)
(declare-fun P23 () Bool)
(declare-fun P24 () Bool)
(declare-fun P25 () Bool)
(declare-fun P26 () Bool)
(declare-fun P27 () Bool)
(declare-fun P28 () Bool)
(declare-fun P29 () Bool)
(declare-fun P30 () Bool)
(declare-fun P31 () Bool)
(declare-fun P32 () Bool)
(declare-fun P33 () Bool)
(declare-fun P34 () Bool)
(declare-fun P35 () Bool)
(declare-fun P36 () Bool)
(declare-fun P37 () Bool)
(declare-fun P38 () Bool)
(declare-fun P39 () Bool)
(declare-fun P40 () Bool)
(declare-fun P41 () Bool)
(declare-fun P42 () Bool)
(declare-fun P43 () Bool)
(declare-fun P44 () Bool)
(declare-fun P45 () Bool)
(declare-fun P46 () Bool)
(declare-fun P47 () Bool)
(declare-fun P48 () Bool)
(declare-fun P49 () Bool)
(assert (let ((?v_24 (* 27 x46)) (?v_213 (<= (+ (- (* 16 x23) (* 3 x27)) (* 8 x6)) 17)) (?v_35 (* 4 x35)) (?v_33 (<= (- (- (* 9 x30) (* 22 x18)) (* 23 x45)) 25)) (?v_16 (* 15 x41))) (let ((?v_234 (<= (- (- (* 2 x38) ?v_16) (* 27 x22)) 3)) (?v_9 (< (- (- (* 12 x3) (* 14 x29)) (* 19 x49)) 20)) (?v_200 (= (- (- (* 17 x10) (* 24 x31)) (* 16 x22)) 23)) (?v_6 (< (- (- (* 7 x23) ?v_24) (* 5 x31)) 7)) (?v_157 (< (- (- (* 21 x28) (* 10 x9)) ?v_16) 26)) (?v_25 (* 19 x1))) (let ((?v_163 (< (- (+ (* 24 x48) (* 16 x12)) ?v_25) 23)) (?v_83 (<= (- (- (* 13 x2) (* 9 x36)) (* 20 x8)) 8)) (?v_78 (<= (- (- (* 15 x40) (* 18 x9)) (* 19 x15)) 17)) (?v_119 (* 13 x15))) (let ((?v_12 (< (+ (- (* 27 x3) (* 11 x16)) ?v_119) 11)) (?v_14 (< (+ (- (* 2 x4) (* 7 x30)) (* 13 x31)) 12)) (?v_79 (<= (- (- (* 10 x3) (* 20 x25)) ?v_35) 16)) (?v_116 (< (- (+ (* 27 x10) (* 8 x24)) (* 26 x3)) 5)) (?v_55 (f0_1 x47))) (let ((?v_49 (= (f0_1 x0) ?v_55)) (?v_97 (= (f0_1 x24) (f0_1 x10))) (?v_81 (= (f0_2 x19 x45) x7)) (?v_20 (= (f0_1 x42) (f0_2 x30 x30))) (?v_202 (f0_1 x28))) (let ((?v_223 (distinct ?v_202 x22)) (?v_65 (f0_1 x38))) (let ((?v_130 (= (f0_2 x31 x47) ?v_65)) (?v_112 (= (f0_2 x3 x34) (f0_2 x38 x44))) (?v_26 (f0_1 x14))) (let ((?v_67 (= (f0_1 x29) ?v_26)) (?v_0 (distinct (f0_2 x1 x43) (f0_2 x13 x0))) (?v_142 (= x35 x11)) (?v_134 (f0_1 x11))) (let ((?v_173 (= x24 ?v_134)) (?v_155 (distinct x34 x12)) (?v_82 (= (f0_1 x7) (f0_1 x22))) (?v_100 (distinct ?v_134 (f0_2 x30 x29))) (?v_177 (= x32 (f0_2 x20 x19))) (?v_77 (= (f0_1 x23) ?v_55)) (?v_103 (distinct ?v_26 (f0_1 x19))) (?v_80 (f0_1 x49))) (let ((?v_86 (= ?v_80 x3)) (?v_123 (f0_1 x18))) (let ((?v_186 (distinct ?v_123 x31)) (?v_143 (f0_1 x8))) (let ((?v_29 (= ?v_143 (f0_2 x49 x47))) (?v_7 (= x32 (f0_2 x34 x49))) (?v_5 (f0_1 x12))) (let ((?v_17 (= (f0_1 x33) ?v_5)) (?v_94 (= x20 (f0_2 x17 x33))) (?v_108 (distinct (f0_1 x17) x11)) (?v_210 (= (f0_2 x25 x32) (f0_2 x5 x22))) (?v_148 (distinct x31 ?v_80)) (?v_211 (distinct (f0_2 x14 x39) ?v_143)) (?v_89 (distinct ?v_5 (f0_1 x45))) (?v_87 (f0_1 x25))) (let ((?v_136 (= ?v_87 x30)) (?v_205 (= (f0_2 x20 x47) (f0_2 x2 x12))) (?v_168 (= x43 x28)) (?v_194 (distinct ?v_202 x10)) (?v_59 (= (f0_1 x1) (f0_1 x34))) (?v_11 (f0_1 x44))) (let ((?v_204 (= ?v_11 x34)) (?v_76 (= (f0_1 x13) x41)) (?v_27 (distinct ?v_5 x3)) (?v_178 (= (f0_2 x28 x19) ?v_11)) (?v_66 (distinct (f0_2 x14 x24) x27)) (?v_95 (distinct (f0_2 x16 x4) x1)) (?v_236 (= ?v_65 x9)) (?v_209 (= (f0_1 x46) (f0_2 x27 x15))) (?v_8 (distinct (f0_2 x16 x38) x20)) (?v_221 (distinct x1 (f0_1 x27))) (?v_56 (distinct (f0_2 x11 x34) x10)) (?v_64 (distinct x7 (f0_2 x1 x44))) (?v_98 (distinct (f0_1 x48) x8)) (?v_73 (distinct x5 (f0_2 x25 x23))) (?v_62 (= (f0_2 x43 x4) ?v_87)) (?v_257 (= (f0_2 x38 x22) ?v_123)) (?v_128 (distinct (f0_2 x32 x37) (f0_2 x17 x37))) (?v_3 (not P8))) (let ((?v_127 (not ?v_178)) (?v_176 (not P12)) (?v_22 (not P18)) (?v_195 (not P7)) (?v_255 (not ?v_0)) (?v_19 (not ?v_27)) (?v_74 (not P4)) (?v_2 (not ?v_7)) (?v_48 (not P46)) (?v_132 (not ?v_62)) (?v_193 (not ?v_155)) (?v_253 (not ?v_20)) (?v_32 (not ?v_56)) (?v_37 (not ?v_9)) (?v_146 (not ?v_234)) (?v_21 (not P21)) (?v_10 (not ?v_12)) (?v_216 (not P1)) (?v_68 (not P3)) (?v_222 (not ?v_100)) (?v_140 (not ?v_209)) (?v_13 (not ?v_8)) (?v_264 (not ?v_33)) (?v_28 (not ?v_49)) (?v_126 (not ?v_108)) (?v_60 (not ?v_204)) (?v_120 (not P32)) (?v_93 (not ?v_89)) (?v_63 (not ?v_200)) (?v_30 (not ?v_257)) (?v_46 (not ?v_157)) (?v_124 (not P47)) (?v_44 (not ?v_17)) (?v_92 (not P24)) (?v_215 (not ?v_210)) (?v_84 (not P22)) (?v_43 (not ?v_163)) (?v_229 (not P20)) (?v_90 (not ?v_67)) (?v_118 (not P35)) (?v_252 (not P2)) (?v_110 (not P43)) (?v_71 (not P14)) (?v_51 (not ?v_130)) (?v_50 (not P10)) (?v_233 (not P25)) (?v_104 (not P36)) (?v_206 (not ?v_83)) (?v_38 (not P41)) (?v_72 (not P42)) (?v_167 (not ?v_213)) (?v_109 (not P34)) (?v_164 (not ?v_116)) (?v_267 (not ?v_14)) (?v_69 (not P31)) (?v_182 (not P0)) (?v_137 (not ?v_59)) (?v_61 (not ?v_128)) (?v_122 (not ?v_148)) (?v_184 (not P38)) (?v_152 (not ?v_64)) (?v_161 (not ?v_236)) (?v_153 (not P5)) (?v_189 (not P30)) (?v_150 (not P37)) (?v_203 (not ?v_78)) (?v_198 (not P28)) (?v_133 (not P11)) (?v_111 (not ?v_98)) (?v_101 (not P40)) (?v_256 (not P48)) (?v_171 (not P39)) (?v_170 (not ?v_103)) (?v_217 (not P44)) (?v_129 (not ?v_112)) (?v_138 (not P33)) (?v_224 (not ?v_186)) (?v_214 (not ?v_66)) (?v_181 (not ?v_94)) (?v_139 (not P16)) (?v_158 (not P49)) (?v_207 (not ?v_173)) (?v_149 (not ?v_136)) (?v_145 (not ?v_76)) (?v_183 (not ?v_211)) (?v_240 (or ?v_83 P41)) (?v_250 (not ?v_97))) (let ((?v_262 (or P21 ?v_61)) (?v_172 (not P13)) (?v_196 (not ?v_205)) (?v_175 (not ?v_81)) (?v_191 (not P23)) (?v_268 (or P27 ?v_158)) (?v_179 (not ?v_6)) (?v_232 (not P15)) (?v_259 (or ?v_33 ?v_183)) (?v_242 (not ?v_29)) (?v_261 (not ?v_221)) (?v_235 (not ?v_73)) (?v_219 (not ?v_177)) (?v_251 (not ?v_223)) (?v_212 (not P6)) (?v_247 (not P9)) (?v_226 (not ?v_194)) (?v_237 (not P29)) (?v_220 (not P17)) (?v_263 (not P45)) (?v_238 (not ?v_86)) (?v_230 (not ?v_168)) (?v_239 (not ?v_79)) (?v_243 (not ?v_95)) (?v_258 (not ?v_82)) (?v_265 (not P27)) (?v_269 (not ?v_77)) (?v_75 (< (+ (* 22 x15) (* 21 x49) (* 5 x42)) 19))) (let ((?v_4 (not ?v_75)) (?v_18 (<= (+ (* 5 x41) (* 7 x26) (* 16 x26)) 9))) (let ((?v_254 (not ?v_18)) (?v_31 (< (+ (* 14 x48) (* 25 x7) (* 23 x32)) 11)) (?v_53 (< (+ (* 26 x12) (* 5 x26) (* 2 x14)) 24))) (let ((?v_125 (not ?v_53))) (let ((?v_201 (or ?v_19 ?v_125)) (?v_246 (not ?v_31)) (?v_39 (< (- (+ (* 2 x7) (* 12 x37)) (* 19 x43)) (- 17)))) (let ((?v_1 (not ?v_39)) (?v_54 (< (- (- (* 5 x5) (* 2 x29)) (* 14 x40)) (- 6)))) (let ((?v_208 (not ?v_54)) (?v_15 (< (- (+ (* (- 6) x28) (* 23 x4)) (* 22 x20)) (- 21)))) (let ((?v_162 (not ?v_15)) (?v_85 (= (- (+ (* (- 7) x27) (* 25 x10)) ?v_25) (- 14))) (?v_99 (< (+ (- (* (- 13) x37) (* 11 x49)) (* 5 x7)) 12)) (?v_165 (<= (- (+ (* 10 x15) (* 12 x38)) 0) (- 7)))) (let ((?v_52 (not ?v_165)) (?v_159 (<= (- (- (* 21 x47) x39) (* 16 x28)) (- 21)))) (let ((?v_113 (not ?v_159)) (?v_23 (<= (- (- (* 8 x39) 0) (* 19 x13)) (- 14))) (?v_42 (< (+ (* (- 24) x3) (* 13 x38) (* 23 x27)) (- 13))) (?v_169 (<= (- (- (* (- 14) x35) (* 6 x47)) (* 13 x20)) 12)) (?v_34 (<= (- (* 6 x6) (* 27 x44)) (- 1)))) (let ((?v_88 (not ?v_34)) (?v_187 (< (- (+ (* 2 x6) ?v_24) (* 19 x35)) (- 18)))) (let ((?v_144 (not ?v_187)) (?v_96 (<= (+ (- (* (- 3) x28) (* 15 x45)) (* 3 x20)) (- 11)))) (let ((?v_106 (not ?v_96)) (?v_45 (<= (- (+ (* (- 16) x34) (* 12 x31)) (* 25 x17)) (- 29))) (?v_107 (<= (+ (* (- 5) x40) (* 10 x36) (* 18 x44)) (- 3)))) (let ((?v_40 (not ?v_107)) (?v_41 (= (- (- (* (- 4) x21) x2) (* 16 x49)) 7)) (?v_47 (<= (+ (* (- 14) x27) (* 5 x20) (* 23 x2)) (- 4))) (?v_218 (= (- (+ (* (- 19) x1) (* 10 x28)) (* 3 x7)) (- 13)))) (let ((?v_70 (not ?v_218)) (?v_180 (<= (+ (* 22 x44) ?v_35 (* 19 x18)) (- 25))) (?v_151 (<= (+ (* (- 6) x6) (* 25 x19) (* 10 x47)) 27))) (let ((?v_135 (not ?v_151)) (?v_102 (distinct (- (* (- 21) x17) (* 19 x9)) (- 25))) (?v_36 (<= (+ (- (* 15 x19) (* 25 x35)) (* 20 x9)) (- 4)))) (let ((?v_57 (not ?v_36)) (?v_154 (= (+ (- (* 17 x14) (* 24 x49)) (* 15 x13)) (- 9)))) (let ((?v_147 (not ?v_154)) (?v_160 (not ?v_23)) (?v_174 (not ?v_42)) (?v_199 (or P38 ?v_47)) (?v_91 (<= (- (+ (* (- 2) x14) (* 25 x43)) (* 4 x49)) (- 3)))) (let ((?v_117 (not ?v_91)) (?v_58 (< (- 0 (* 8 x42)) (- 2))) (?v_114 (<= (- (+ (* (- 1) x5) (* 27 x29)) (* 6 x10)) (- 18))) (?v_121 (<= (- (+ (* 8 x34) (* 23 x13)) (* 18 x19)) (- 4))) (?v_241 (not ?v_99)) (?v_105 (distinct (- (+ (* (- 23) x40) (* 2 x26)) (* 10 x26)) (- 17)))) (let ((?v_197 (not ?v_105)) (?v_166 (<= (- (- (* (- 7) x2) (* 21 x42)) (* 7 x16)) 15))) (let ((?v_141 (not ?v_166)) (?v_115 (not ?v_41)) (?v_185 (not ?v_102)) (?v_131 (not ?v_114)) (?v_228 (< (+ (- 0 x45) ?v_119) (- 2))) (?v_156 (not ?v_121)) (?v_188 (< (+ (* (- 2) x7) (* 11 x46) (* 16 x17)) (- 2)))) (let ((?v_225 (not ?v_188)) (?v_231 (not ?v_85)) (?v_260 (or ?v_113 ?v_99)) (?v_190 (<= (+ (* 3 x13) (* 11 x38) (* 26 x45)) (- 20))) (?v_248 (not ?v_169)) (?v_192 (not ?v_58)) (?v_266 (not ?v_47)) (?v_244 (not ?v_180))) (let ((?v_245 (not ?v_190)) (?v_227 (not ?v_45)) (?v_249 (not ?v_228))) (and (and (and (and (and (and (and (and (and (and (and (and (and (and (and (and (and (and (and (and (and (and (and (and (and (and (and (and (and (and (and (and (and (and (and (and (and (and (and (and (and (and (and (and (and (and (and (and (and (and (and (and (and (and (and (and (and (and (and (and (and (and (and (and (and (and (and (and (and (and (and (and (and (and (and (and (and (and (and (and (and (and (and (and (and (and (and (and (and (and (and (and (and (and (and (and (and (and (and (and (and (and (and (and (and (and (and (and (and (and (and (and (and (and (and (and (and (and (and (and (and (and (and (and (and (and (and (and (and (and (and (and (and (and (and (and (and (and (and (and (and (and (and (and (and (and (and (and (and (and (and (and (and (and (and (and (and (and (and (and (and (and (and (and (and (and (and (and (and (and (and (and (and (and (and (and (and (and (and (and (and (and (and (and (and (and (and (and (and (and (and (and (and (and (and (and (and (and (and (and (and (and (and (and (and (and (and (and (and (and (and (and (and (and (and (and (and (and (and (and (and (and (and (and (and (and (and (and (and (and (and (and (and (and (and (and (and (and (and (and (and (and (and (and (and (and (and (and (and (and (and (and (and (and (and (and (and (and (and (and (and (and (and (and (and (and (and (and (and (and (and (and (and (and (and (and (and (and (and (and (and (and (and (and (and (and (and (and (and (and (and (and (and (and (and (and (and (and (and (and (and (and (and (and (and (and (and (and (and (and (and (and (and (and (and (and (and (and (and (and (and (and (and (and (and (and (and (and (and (and (and (and (and (and (and (and (and (and (and (and (and (and (and (and (and (and (and (and (and (and (and (and (and (and (and (and (and (and (and (and (and (and (and (and (and (and (and (and (and (and (and (and (and (and (and (and (and (and (and (and (and (and (and (and (and (and (and (and (and (and (and (and (and (and (and (and (and (and (and (and (and (and (and (and (and (and (and (and (and (and (and (and (and (and (and (and (and (and (and (and (and (and (and (and (and (and (and (and (and (and (and (and (and (and (and (and (and (and (and (and (and (and (and (and (and (and (and (and (and (and (and (and (and (and (and (and (and (and (and (and (and (and (and (and (and (and (and (and (and (and (and (and (and (and (and (and (and (and (and (and (and (and (and (and (and (and (and (and (and (and (and (and (and (and (and (and (and (and (and (and (and (and (and (and (and (and (and (and (and (and (and (and (and (and (and (and (and (and (and (and (and (and (and (and (and (and (and (and (and (and (and (and (and (and (and (and (and (and (and (and (and (and (and (and (and (and (and (and (and (and (and (and (and (and (and (and (and (and (and (and (and (and (and (and (and (and (and (and (and (and (and (and (and (and (and (and (and (and (and (and (and (and (and (and (and (and (and (and (and (and (and (and (and (and (and (and (and (and (and (or (or ?v_1 ?v_4) ?v_95) (or (or ?v_3 ?v_112) ?v_127)) (or (or ?v_176 ?v_254) ?v_142)) (or (or ?v_14 ?v_0) ?v_22)) (or (or ?v_195 ?v_208) ?v_255)) (or (or ?v_1 ?v_19) ?v_74)) (or (or ?v_2 P35) ?v_64)) (or (or P38 ?v_162) ?v_2)) (or (or P37 ?v_48) ?v_3)) (or (or ?v_132 P1) ?v_4)) (or (or ?v_2 ?v_6) ?v_193)) (or (or ?v_253 P27) ?v_32)) (or (or ?v_85 ?v_37) ?v_99)) (or (or ?v_168 ?v_17) ?v_146)) (or (or ?v_21 ?v_10) ?v_216)) (or (or ?v_52 ?v_8) ?v_6)) (or (or ?v_68 ?v_222) ?v_113)) (or (or ?v_103 ?v_7) ?v_140)) (or (or ?v_13 ?v_264) ?v_9)) (or (or P23 ?v_10) ?v_28)) (or (or ?v_126 ?v_23) ?v_60)) (or (or P21 ?v_42) P0)) (or (or P10 ?v_120) ?v_93)) (or (or ?v_12 ?v_169) ?v_88)) (or (or ?v_63 ?v_13) ?v_14)) (or (or ?v_30 ?v_15) ?v_29)) (or (or ?v_46 P15) ?v_0)) (or (or P4 P47) ?v_79)) (or (or ?v_124 ?v_44) P37)) (or (or ?v_92 ?v_215) ?v_6)) (or (or ?v_18 ?v_94) ?v_97)) (or (or ?v_19 P8) ?v_84)) (or (or ?v_0 ?v_20) P14)) (or (or ?v_21 ?v_22) ?v_23)) (or (or ?v_144 ?v_106) P17)) (or (or ?v_43 ?v_229) P37)) (or (or ?v_90 ?v_45) ?v_40)) (or (or ?v_20 ?v_118) ?v_41)) (or (or ?v_27 ?v_81) P24)) (or (or P6 ?v_28) ?v_21)) (or (or ?v_29 ?v_30) ?v_47)) (or (or ?v_252 P26) ?v_70)) (or (or ?v_31 ?v_31) ?v_32)) (or (or ?v_98 ?v_110) ?v_33)) (or (or P10 ?v_71) ?v_34)) (or (or ?v_51 ?v_50) ?v_180)) (or (or ?v_233 ?v_104) ?v_206)) (or (or ?v_59 ?v_135) P8)) (or (or P43 ?v_38) ?v_102)) (or (or P21 ?v_57) ?v_18)) (or (or ?v_36 ?v_37) P13)) (or (or ?v_147 ?v_38) ?v_39)) (or (or ?v_40 ?v_160) ?v_6)) (or (or ?v_72 ?v_41) ?v_174)) (or (or ?v_18 ?v_73) ?v_43)) (or (or P27 ?v_167) ?v_109)) (or (or ?v_7 P11) ?v_44)) (or (or ?v_41 ?v_164) ?v_45)) (or (or ?v_53 P10) P36)) (or (or ?v_46 ?v_17) P28)) (or ?v_199 ?v_117)) (or (or ?v_36 ?v_48) ?v_49)) (or (or ?v_50 P19) ?v_58)) (or (or ?v_267 ?v_82) ?v_34)) (or (or ?v_51 P35) ?v_69)) (or (or ?v_52 ?v_53) ?v_54)) (or (or ?v_77 ?v_56) ?v_57)) (or (or ?v_66 ?v_58) ?v_114)) (or (or ?v_182 ?v_137) ?v_21)) (or (or ?v_61 ?v_122) ?v_60)) (or (or ?v_38 ?v_184) ?v_76)) (or (or P43 ?v_15) ?v_61)) (or (or ?v_44 ?v_62) ?v_48)) (or (or ?v_63 ?v_47) ?v_7)) (or (or ?v_152 ?v_78) ?v_161)) (or (or ?v_66 ?v_153) ?v_67)) (or (or ?v_68 ?v_69) ?v_70)) (or (or P27 ?v_189) ?v_71)) (or (or ?v_72 ?v_73) P27)) (or (or ?v_74 ?v_150) ?v_75)) (or (or ?v_70 ?v_76) ?v_48)) (or (or ?v_66 ?v_77) ?v_203)) (or (or ?v_198 P21) P37)) (or (or P40 ?v_19) ?v_79)) (or (or P11 ?v_86) ?v_81)) (or (or ?v_133 P37) ?v_82)) (or (or ?v_39 ?v_83) ?v_84)) (or (or ?v_85 ?v_48) ?v_86)) (or (or ?v_136 ?v_88) P18)) (or (or ?v_19 P15) P1)) (or (or ?v_89 ?v_90) ?v_91)) (or (or ?v_121 ?v_92) ?v_61)) (or (or P34 P6) ?v_93)) (or (or ?v_94 ?v_95) ?v_96)) (or (or ?v_83 ?v_97) ?v_111)) (or (or ?v_241 ?v_100) ?v_101)) (or (or ?v_197 ?v_46) ?v_101)) (or (or P32 ?v_141) ?v_115)) (or (or P32 ?v_102) ?v_256)) (or (or ?v_171 ?v_32) ?v_170)) (or (or ?v_62 ?v_53) ?v_104)) (or (or ?v_217 ?v_105) ?v_106)) (or (or ?v_125 ?v_185) ?v_107)) (or (or ?v_38 ?v_108) ?v_57)) (or (or ?v_177 ?v_36) ?v_109)) (or (or ?v_110 ?v_6) ?v_83)) (or (or P33 ?v_111) ?v_129)) (or (or ?v_29 ?v_113) ?v_131)) (or (or ?v_138 ?v_115) P21)) (or (or ?v_116 ?v_117) ?v_118)) (or (or ?v_28 ?v_56) ?v_68)) (or (or ?v_41 ?v_4) ?v_228)) (or (or ?v_112 ?v_1) ?v_85)) (or (or ?v_120 ?v_156) ?v_122)) (or (or ?v_56 ?v_48) ?v_224)) (or (or ?v_124 P29) P26)) (or ?v_201 P46)) (or (or ?v_66 ?v_112) ?v_3)) (or (or P48 ?v_126) ?v_101)) (or (or ?v_70 ?v_225) ?v_127)) (or (or ?v_84 ?v_21) ?v_231)) (or (or ?v_71 P45) P32)) (or (or ?v_128 P23) P7)) (or (or ?v_129 ?v_214) ?v_102)) (or (or ?v_130 ?v_181) ?v_131)) (or (or ?v_43 ?v_109) ?v_56)) (or (or ?v_139 P14) ?v_128)) (or (or ?v_158 ?v_132) ?v_133)) (or (or ?v_77 ?v_207) ?v_51)) (or (or ?v_135 ?v_149) ?v_137)) (or (or ?v_103 ?v_138) ?v_83)) (or (or ?v_139 ?v_92) ?v_102)) (or (or ?v_140 ?v_41) ?v_7)) (or (or ?v_145 ?v_22) ?v_141)) (or (or ?v_142 P11) ?v_43)) (or (or ?v_183 ?v_144) ?v_145)) (or ?v_240 ?v_146)) (or ?v_260 ?v_147)) (or (or ?v_148 ?v_141) ?v_77)) (or (or ?v_149 ?v_150) P22)) (or (or ?v_151 ?v_152) P2)) (or (or P43 ?v_98) ?v_82)) (or (or ?v_153 ?v_154) ?v_131)) (or (or ?v_74 ?v_103) ?v_155)) (or (or ?v_155 P48) ?v_190)) (or (or ?v_90 ?v_30) ?v_52)) (or (or ?v_156 ?v_89) ?v_250)) (or (or ?v_2 ?v_3) ?v_31)) (or (or ?v_145 P5) P40)) (or ?v_262 ?v_112)) (or (or ?v_135 P15) ?v_37)) (or (or ?v_157 ?v_158) ?v_159)) (or (or ?v_172 ?v_2) ?v_160)) (or (or ?v_196 ?v_175) ?v_50)) (or (or ?v_130 P3) ?v_161)) (or (or ?v_110 P32) ?v_23)) (or (or ?v_127 ?v_45) ?v_142)) (or (or ?v_135 ?v_97) ?v_71)) (or (or ?v_162 ?v_12) ?v_125)) (or (or P24 ?v_66) ?v_21)) (or (or ?v_37 ?v_10) ?v_163)) (or (or ?v_164 P24) ?v_165)) (or (or ?v_152 ?v_191) ?v_82)) (or (or P38 ?v_166) ?v_147)) (or (or ?v_167 P9) P21)) (or (or ?v_158 P7) ?v_89)) (or (or P3 ?v_56) ?v_38)) (or (or ?v_168 P25) ?v_102)) (or (or P32 ?v_21) P3)) (or (or ?v_248 ?v_170) P18)) (or ?v_268 ?v_171)) (or (or P46 ?v_58) ?v_179)) (or (or ?v_116 ?v_172) ?v_192)) (or (or ?v_100 ?v_232) ?v_128)) (or (or P48 P44) ?v_141)) (or (or ?v_194 ?v_17) ?v_36)) (or (or ?v_166 ?v_173) P17)) (or (or ?v_43 ?v_174) ?v_140)) (or (or P24 ?v_22) ?v_266)) (or (or ?v_175 ?v_129) ?v_176)) (or (or ?v_144 ?v_39) ?v_169)) (or (or ?v_111 ?v_177) ?v_33)) (or (or ?v_118 ?v_178) ?v_179)) (or (or P18 ?v_244) ?v_75)) (or (or ?v_168 ?v_181) ?v_182)) (or ?v_259 ?v_184)) (or (or ?v_29 ?v_117) ?v_185)) (or (or ?v_96 P25) ?v_112)) (or (or ?v_242 ?v_261) ?v_183)) (or (or ?v_4 ?v_186) ?v_69)) (or (or ?v_160 ?v_187) ?v_163)) (or (or ?v_116 ?v_10) ?v_166)) (or (or ?v_188 ?v_115) ?v_19)) (or (or P35 ?v_189) P26)) (or (or ?v_130 ?v_140) ?v_60)) (or (or ?v_235 ?v_118) ?v_185)) (or (or ?v_219 ?v_165) ?v_57)) (or (or ?v_142 ?v_8) ?v_163)) (or (or ?v_130 ?v_117) ?v_32)) (or (or ?v_90 ?v_46) ?v_83)) (or (or ?v_177 ?v_30) ?v_137)) (or (or ?v_245 ?v_184) ?v_37)) (or (or ?v_191 ?v_192) ?v_193)) (or (or ?v_194 ?v_10) ?v_93)) (or (or P6 P26) P19)) (or (or ?v_195 P11) ?v_196)) (or (or P46 P22) ?v_197)) (or (or P45 ?v_198) P20)) (or (or ?v_58 P9) ?v_169)) (or (or ?v_88 ?v_146) ?v_111)) (or (or ?v_142 ?v_198) ?v_59)) (or (or ?v_38 ?v_18) ?v_146)) (or ?v_199 ?v_115)) (or (or ?v_179 ?v_45) ?v_19)) (or (or ?v_174 ?v_200) ?v_61)) (or (or ?v_149 P23) ?v_32)) (or ?v_201 ?v_36)) (or (or ?v_45 ?v_73) P41)) (or (or ?v_251 ?v_21) P47)) (or (or ?v_150 ?v_203) ?v_212)) (or (or ?v_105 ?v_203) P18)) (or (or ?v_31 ?v_69) ?v_169)) (or (or ?v_190 ?v_81) ?v_204)) (or (or ?v_59 ?v_194) ?v_170)) (or (or P41 ?v_136) ?v_74)) (or (or ?v_136 P19) ?v_205)) (or (or P39 ?v_131) ?v_49)) (or (or P27 ?v_190) ?v_44)) (or (or ?v_44 P18) ?v_131)) (or (or ?v_68 ?v_247) ?v_226)) (or (or ?v_76 ?v_166) P32)) (or (or P13 ?v_145) ?v_52)) (or (or ?v_43 ?v_41) ?v_206)) (or (or ?v_116 ?v_207) P10)) (or (or ?v_208 ?v_47) ?v_209)) (or (or ?v_49 ?v_160) ?v_167)) (or (or ?v_205 ?v_198) ?v_19)) (or (or P27 ?v_103) ?v_194)) (or (or ?v_210 ?v_169) ?v_237)) (or (or ?v_106 ?v_23) ?v_67)) (or (or ?v_220 ?v_107) ?v_84)) (or (or ?v_70 ?v_208) P41)) (or (or ?v_211 ?v_212) ?v_85)) (or (or ?v_120 ?v_263) ?v_29)) (or (or P35 ?v_133) ?v_125)) (or (or ?v_246 ?v_86) ?v_174)) (or (or ?v_77 ?v_111) ?v_174)) (or (or P42 ?v_30) P49)) (or (or ?v_15 ?v_12) ?v_213)) (or (or ?v_120 P11) ?v_111)) (or (or ?v_27 ?v_187) ?v_214)) (or (or P22 P48) ?v_227)) (or (or ?v_170 ?v_108) ?v_215)) (or (or ?v_177 ?v_238) ?v_216)) (or (or ?v_126 ?v_105) P13)) (or (or ?v_83 ?v_19) ?v_212)) (or (or ?v_27 ?v_99) ?v_127)) (or (or ?v_51 ?v_217) P48)) (or (or ?v_158 ?v_101) ?v_230)) (or (or P49 ?v_103) ?v_69)) (or (or ?v_218 ?v_219) ?v_175)) (or (or ?v_2 ?v_43) ?v_54)) (or (or P10 ?v_79) ?v_176)) (or (or P37 ?v_127) P28)) (or (or ?v_49 ?v_193) ?v_105)) (or (or ?v_136 P48) ?v_220)) (or (or P25 ?v_148) ?v_137)) (or (or ?v_177 P12) ?v_211)) (or (or ?v_99 ?v_18) ?v_210)) (or (or ?v_66 ?v_183) ?v_79)) (or (or ?v_136 ?v_32) ?v_221)) (or (or P33 ?v_184) ?v_12)) (or (or ?v_103 ?v_189) P45)) (or (or ?v_141 ?v_95) P1)) (or (or ?v_111 ?v_30) P33)) (or (or ?v_66 ?v_151) ?v_91)) (or (or ?v_18 ?v_0) ?v_171)) (or (or ?v_93 ?v_48) ?v_163)) (or (or P22 ?v_102) P14)) (or (or P39 ?v_222) ?v_223)) (or (or P17 ?v_224) ?v_225)) (or (or ?v_98 P43) ?v_200)) (or (or ?v_90 ?v_196) ?v_44)) (or (or ?v_68 ?v_49) ?v_226)) (or (or ?v_215 P23) ?v_124)) (or (or ?v_34 ?v_120) ?v_93)) (or (or ?v_227 ?v_76) ?v_17)) (or (or ?v_161 ?v_142) P23)) (or (or ?v_127 ?v_33) ?v_228)) (or (or ?v_229 ?v_129) ?v_230)) (or (or ?v_105 ?v_7) P22)) (or (or P39 ?v_218) ?v_231)) (or (or ?v_44 ?v_116) ?v_101)) (or (or P2 P16) ?v_239)) (or (or ?v_210 ?v_148) ?v_227)) (or (or ?v_12 ?v_81) ?v_33)) (or (or ?v_49 P25) P1)) (or (or ?v_19 ?v_10) (not P26))) (or (or P26 ?v_154) ?v_217)) (or (or P0 ?v_145) P2)) (or (or ?v_100 ?v_170) P42)) (or (or ?v_66 ?v_200) P49)) (or (or ?v_232 ?v_60) ?v_88)) (or (or ?v_170 ?v_179) ?v_82)) (or (or ?v_180 ?v_209) ?v_46)) (or (or ?v_76 ?v_164) ?v_121)) (or (or ?v_42 ?v_111) ?v_2)) (or (or ?v_206 ?v_209) ?v_103)) (or (or ?v_103 ?v_233) ?v_98)) (or (or P36 ?v_226) ?v_138)) (or (or P2 P28) ?v_234)) (or (or P12 ?v_235) ?v_236)) (or (or ?v_7 ?v_237) ?v_140)) (or (or ?v_192 ?v_22) ?v_154)) (or (or ?v_230 ?v_84) ?v_124)) (or (or ?v_37 ?v_144) ?v_193)) (or (or ?v_20 ?v_74) ?v_17)) (or (or ?v_178 ?v_203) ?v_194)) (or (or ?v_158 ?v_37) ?v_128)) (or (or ?v_158 ?v_111) ?v_31)) (or (or ?v_148 ?v_7) ?v_194)) (or (or ?v_238 ?v_239) ?v_230)) (or (or P37 ?v_156) ?v_124)) (or (or ?v_115 ?v_74) P42)) (or (or ?v_110 ?v_133) ?v_145)) (or (or ?v_116 ?v_42) ?v_243)) (or (or ?v_7 P16) ?v_232)) (or ?v_240 ?v_31)) (or (or ?v_241 ?v_85) ?v_229)) (or (or ?v_258 ?v_183) ?v_43)) (or (or ?v_226 ?v_178) ?v_71)) (or (or ?v_60 ?v_33) ?v_2)) (or (or ?v_94 ?v_228) ?v_170)) (or (or P18 P2) P21)) (or (or ?v_195 ?v_242) ?v_148)) (or (or ?v_214 ?v_243) ?v_203)) (or (or ?v_59 ?v_42) P12)) (or (or ?v_63 ?v_1) ?v_152)) (or (or ?v_184 P2) ?v_200)) (or (or ?v_230 P18) ?v_42)) (or (or ?v_249 ?v_244) P36)) (or (or ?v_245 P19) P37)) (or (or ?v_47 ?v_21) ?v_22)) (or (or ?v_207 P45) ?v_208)) (or (or ?v_213 ?v_221) P44)) (or (or P30 ?v_223) P49)) (or (or ?v_77 ?v_188) ?v_170)) (or (or ?v_90 ?v_185) ?v_246)) (or (or ?v_57 ?v_110) ?v_247)) (or (or ?v_2 ?v_67) ?v_147)) (or (or P47 ?v_210) ?v_86)) (or (or ?v_21 ?v_14) ?v_147)) (or (or ?v_213 ?v_183) ?v_112)) (or (or P40 P21) ?v_167)) (or (or P31 ?v_19) ?v_248)) (or (or P13 ?v_222) P27)) (or (or ?v_130 ?v_29) ?v_91)) (or (or ?v_150 ?v_94) ?v_209)) (or (or ?v_4 ?v_72) ?v_243)) (or (or P7 P25) ?v_77)) (or (or ?v_233 ?v_211) ?v_137)) (or (or ?v_75 ?v_218) ?v_135)) (or (or P40 ?v_173) ?v_169)) (or (or P0 ?v_101) ?v_99)) (or (or ?v_204 ?v_225) ?v_15)) (or (or ?v_184 ?v_217) P49)) (or (or ?v_36 ?v_249) ?v_147)) (or (or ?v_168 ?v_56) ?v_110)) (or (or P32 ?v_138) ?v_102)) (or (or ?v_17 P20) ?v_203)) (or (or ?v_147 ?v_93) ?v_185)) (or (or ?v_250 ?v_251) P3)) (or (or ?v_163 ?v_19) ?v_170)) (or (or ?v_56 ?v_252) ?v_253)) (or (or ?v_106 ?v_236) ?v_163)) (or (or ?v_214 ?v_150) ?v_144)) (or (or ?v_217 ?v_68) ?v_37)) (or (or ?v_47 P35) ?v_254)) (or (or ?v_109 ?v_54) ?v_190)) (or (or ?v_206 ?v_217) P5)) (or (or ?v_22 ?v_112) ?v_216)) (or (or ?v_90 ?v_187) P21)) (or (or ?v_209 ?v_39) ?v_175)) (or (or ?v_8 ?v_129) P29)) (or (or ?v_121 ?v_30) ?v_17)) (or (or ?v_216 ?v_1) ?v_74)) (or (or ?v_58 ?v_74) ?v_255)) (or (or ?v_114 ?v_228) ?v_99)) (or (or ?v_138 ?v_236) ?v_163)) (or (or ?v_67 ?v_206) ?v_45)) (or (or ?v_15 ?v_79) ?v_88)) (or (or ?v_234 ?v_204) ?v_31)) (or (or P24 ?v_102) ?v_93)) (or (or ?v_184 ?v_230) ?v_131)) (or (or ?v_70 ?v_27) ?v_212)) (or (or ?v_161 ?v_235) ?v_238)) (or (or ?v_176 ?v_145) ?v_42)) (or (or ?v_13 ?v_108) ?v_43)) (or (or ?v_97 ?v_27) ?v_66)) (or (or ?v_129 ?v_88) P44)) (or (or ?v_191 P16) ?v_73)) (or (or P46 ?v_105) ?v_58)) (or (or ?v_62 ?v_220) P43)) (or (or ?v_238 P41) P24)) (or (or P41 ?v_108) ?v_106)) (or (or ?v_85 ?v_47) ?v_256)) (or (or ?v_142 ?v_243) ?v_50)) (or (or ?v_0 ?v_42) P9)) (or (or ?v_69 ?v_185) ?v_192)) (or (or ?v_75 P43) P31)) (or (or ?v_220 ?v_142) ?v_236)) (or (or ?v_8 ?v_144) ?v_67)) (or (or ?v_6 ?v_254) P9)) (or (or ?v_3 ?v_180) ?v_108)) (or (or ?v_149 ?v_247) ?v_179)) (or (or ?v_74 ?v_116) ?v_78)) (or (or P45 ?v_187) ?v_254)) (or (or ?v_255 ?v_174) ?v_125)) (or (or ?v_190 ?v_129) ?v_156)) (or (or ?v_184 ?v_100) ?v_166)) (or (or ?v_222 P20) ?v_175)) (or (or ?v_104 ?v_235) ?v_64)) (or (or ?v_89 ?v_181) ?v_187)) (or (or ?v_243 P49) ?v_256)) (or (or ?v_88 ?v_257) P31)) (or (or ?v_156 ?v_236) ?v_20)) (or (or ?v_36 ?v_107) ?v_12)) (or (or P24 ?v_205) ?v_150)) (or (or ?v_207 ?v_127) P31)) (or (or ?v_115 ?v_249) ?v_176)) (or (or ?v_181 ?v_239) ?v_132)) (or (or P1 P3) ?v_209)) (or (or ?v_241 ?v_10) ?v_82)) (or (or P26 P7) ?v_84)) (or (or ?v_7 ?v_162) P45)) (or (or ?v_198 ?v_245) ?v_64)) (or (or ?v_197 P21) ?v_251)) (or (or ?v_92 ?v_61) ?v_178)) (or (or ?v_19 P35) ?v_151)) (or (or ?v_73 P2) P29)) (or (or ?v_206 ?v_53) P26)) (or (or ?v_147 P28) ?v_175)) (or (or ?v_221 ?v_116) ?v_141)) (or (or ?v_186 ?v_258) ?v_255)) (or (or P25 ?v_231) ?v_70)) (or (or ?v_158 ?v_210) P4)) (or (or ?v_215 ?v_247) P40)) (or (or ?v_89 ?v_60) ?v_19)) (or (or ?v_61 P1) ?v_166)) (or (or ?v_238 ?v_226) P18)) (or (or ?v_157 ?v_114) P3)) (or (or P11 ?v_30) ?v_214)) (or (or ?v_163 ?v_54) ?v_235)) (or (or ?v_164 ?v_136) P32)) (or (or ?v_114 ?v_195) P12)) (or (or ?v_7 ?v_209) ?v_3)) (or (or ?v_53 ?v_112) ?v_6)) (or (or ?v_170 P14) P13)) (or ?v_259 ?v_88)) (or ?v_260 ?v_61)) (or (or ?v_50 ?v_261) ?v_210)) (or (or ?v_130 ?v_177) ?v_200)) (or (or P0 ?v_33) ?v_118)) (or (or ?v_244 ?v_212) ?v_131)) (or (or P32 ?v_203) P7)) (or (or ?v_58 ?v_30) ?v_37)) (or (or ?v_114 ?v_102) ?v_121)) (or (or P39 ?v_88) ?v_64)) (or (or ?v_154 ?v_159) ?v_181)) (or ?v_262 P39)) (or (or ?v_7 ?v_190) ?v_175)) (or (or ?v_52 P43) ?v_261)) (or (or ?v_74 ?v_10) ?v_108)) (or (or ?v_107 ?v_20) ?v_117)) (or (or ?v_38 ?v_195) ?v_213)) (or (or ?v_67 ?v_172) ?v_188)) (or (or ?v_198 ?v_22) ?v_83)) (or (or ?v_239 ?v_261) ?v_88)) (or (or ?v_137 ?v_206) ?v_21)) (or (or ?v_258 ?v_59) ?v_210)) (or (or ?v_82 ?v_235) ?v_92)) (or (or P26 ?v_160) ?v_102)) (or (or ?v_255 P43) ?v_170)) (or (or ?v_120 ?v_233) ?v_136)) (or (or ?v_198 ?v_63) ?v_124)) (or (or ?v_116 ?v_17) ?v_1)) (or (or P16 P2) ?v_20)) (or (or ?v_78 ?v_109) ?v_241)) (or (or ?v_172 ?v_88) ?v_173)) (or (or ?v_34 ?v_162) P11)) (or (or ?v_190 ?v_44) ?v_183)) (or (or ?v_14 ?v_107) ?v_131)) (or (or ?v_2 P7) ?v_59)) (or (or ?v_97 P2) ?v_207)) (or (or P39 ?v_86) ?v_251)) (or (or ?v_193 ?v_38) ?v_79)) (or (or ?v_189 ?v_100) ?v_219)) (or (or ?v_71 ?v_206) ?v_197)) (or (or ?v_18 ?v_135) ?v_67)) (or (or ?v_112 P21) ?v_216)) (or (or ?v_33 P3) ?v_113)) (or (or P5 ?v_110) ?v_69)) (or (or ?v_128 ?v_263) ?v_20)) (or (or ?v_57 ?v_95) ?v_215)) (or (or ?v_189 ?v_72) ?v_106)) (or (or ?v_88 P27) ?v_40)) (or (or ?v_187 P34) ?v_209)) (or (or ?v_58 ?v_76) ?v_233)) (or (or ?v_256 ?v_29) P7)) (or (or ?v_114 ?v_133) ?v_82)) (or (or ?v_93 ?v_258) ?v_46)) (or (or ?v_168 ?v_206) ?v_121)) (or (or ?v_172 P12) ?v_163)) (or (or ?v_21 P10) ?v_111)) (or (or ?v_85 ?v_49) P16)) (or (or ?v_179 ?v_138) P46)) (or (or ?v_173 ?v_142) ?v_98)) (or (or ?v_161 P48) ?v_169)) (or (or ?v_121 P32) P7)) (or (or ?v_150 P6) ?v_13)) (or (or ?v_99 ?v_45) ?v_217)) (or (or ?v_103 ?v_126) ?v_265)) (or (or ?v_171 ?v_157) P4)) (or (or ?v_147 ?v_101) ?v_184)) (or (or ?v_40 ?v_183) ?v_146)) (or (or ?v_129 ?v_9) ?v_185)) (or (or ?v_218 P19) ?v_34)) (or (or ?v_197 ?v_212) ?v_141)) (or (or (not ?v_142) ?v_245) ?v_99)) (or (or ?v_194 P33) ?v_86)) (or (or ?v_183 ?v_82) ?v_107)) (or (or ?v_105 P14) ?v_0)) (or (or ?v_7 ?v_51) ?v_257)) (or (or ?v_63 ?v_0) ?v_78)) (or (or ?v_263 ?v_98) ?v_146)) (or (or ?v_29 ?v_50) P38)) (or (or ?v_232 ?v_168) ?v_27)) (or (or ?v_212 ?v_258) ?v_250)) (or (or ?v_226 ?v_63) ?v_53)) (or (or ?v_254 ?v_213) ?v_114)) (or (or ?v_180 ?v_53) P3)) (or (or P19 ?v_253) ?v_93)) (or (or ?v_30 ?v_212) ?v_220)) (or (or ?v_9 ?v_19) P11)) (or (or ?v_167 ?v_226) ?v_264)) (or (or P45 ?v_167) ?v_125)) (or (or P34 ?v_57) ?v_185)) (or (or ?v_173 ?v_42) P7)) (or (or ?v_0 P36) ?v_105)) (or (or ?v_18 P34) ?v_108)) (or (or ?v_180 ?v_29) P22)) (or (or P36 ?v_163) ?v_156)) (or (or ?v_146 ?v_173) ?v_69)) (or (or ?v_145 ?v_169) ?v_21)) (or (or P31 ?v_105) ?v_53)) (or (or ?v_161 P19) P38)) (or (or ?v_186 ?v_170) P27)) (or (or P10 ?v_265) ?v_52)) (or (or ?v_113 P43) ?v_170)) (or (or ?v_32 ?v_125) ?v_196)) (or (or ?v_220 ?v_63) ?v_168)) (or (or ?v_155 ?v_64) ?v_161)) (or (or ?v_155 ?v_227) ?v_44)) (or (or ?v_53 ?v_146) ?v_116)) (or (or ?v_79 ?v_205) ?v_47)) (or (or ?v_95 ?v_3) ?v_72)) (or (or ?v_265 ?v_254) ?v_118)) (or (or ?v_170 ?v_244) ?v_212)) (or (or ?v_84 ?v_192) ?v_76)) (or (or ?v_254 ?v_120) ?v_45)) (or (or P46 ?v_41) ?v_106)) (or (or ?v_60 ?v_234) ?v_75)) (or (or ?v_20 P46) ?v_266)) (or (or ?v_103 ?v_15) ?v_142)) (or (or ?v_95 ?v_140) ?v_13)) (or (or ?v_89 ?v_267) ?v_72)) (or (or ?v_269 P9) ?v_126)) (or ?v_268 ?v_69)) (or (or ?v_196 ?v_57) ?v_78)) (or (or ?v_164 ?v_4) ?v_60)) (or (or P18 ?v_79) ?v_214)) (or (or ?v_129 ?v_17) ?v_185)) (or (or ?v_60 ?v_78) ?v_209)) (or (or ?v_163 ?v_176) ?v_111)) (or (or ?v_79 ?v_77) ?v_88)) (or (or ?v_251 ?v_161) P43)) (or (or ?v_97 ?v_185) ?v_53)) (or (or ?v_203 ?v_186) ?v_195)) (or (or P28 (not P19)) ?v_267)) (or (or ?v_50 ?v_209) ?v_153)) (or (or ?v_141 P36) ?v_232)) (or (or ?v_200 ?v_191) P20)) (or (or ?v_32 ?v_224) ?v_237)) (or (or P43 ?v_269) ?v_211)) (or (or ?v_57 ?v_192) ?v_229)) (or (or ?v_255 ?v_195) ?v_116)) (or (or P13 ?v_153) ?v_223)) (or (or P1 P22) P40)) (or (or ?v_194 ?v_133) ?v_120)) (or (or ?v_232 ?v_178) ?v_189))))))))))))))))))))))))))))))))))))))))))
(check-sat)
(exit)
